p cnf 11 47
10 1 2 0
-9 -10 2 0
8 9 5 0
-5 11 2 0
10 -4 8 0
-10 4 -9 0
4 8 10 0
-2 -1 11 0
-1 3 -9 0
-3 -1 -4 0
-10 2 -1 0
-3 -6 4 0
-7 -2 3 0
8 3 -7 0
-11 -3 -10 0
9 4 -2 0
-5 3 2 0
3 -11 -8 0
6 10 8 0
-10 -7 -3 0
7 11 9 0
-9 3 -6 0
-9 6 2 0
6 -4 2 0
-10 -11 7 0
-6 3 -4 0
1 3 8 0
6 -4 -2 0
-8 3 -5 0
-9 4 8 0
3 -6 9 0
11 -1 10 0
2 -9 -8 0
-3 -8 2 0
-1 -2 10 0
-6 11 5 0
11 1 6 0
1 11 -8 0
-8 1 -2 0
-7 -6 3 0
10 -5 1 0
11 7 -3 0
1 -7 3 0
2 8 1 0
6 3 -10 0
-6 -2 -1 0
-11 10 -4 0
